
(set-logic HORN)
(declare-fun Z_174 () Int)
(declare-fun S_61 (Int) Int)
(declare-datatypes ((Bool_32 0)) (((false_32) (true_32))))
(declare-fun diseqBool_10 (Bool_32 Bool_32) Bool)
(declare-fun isfalse_10 (Bool_32) Bool)
(declare-fun istrue_10 (Bool_32) Bool)
(assert (isfalse_10 false_32))
(assert (istrue_10 true_32))
(assert (diseqBool_10 false_32 true_32))
(assert (diseqBool_10 true_32 false_32))
(declare-fun and_32 (Bool_32 Bool_32 Bool_32) Bool)
(declare-fun or_32 (Bool_32 Bool_32 Bool_32) Bool)
(declare-fun hence_32 (Bool_32 Bool_32 Bool_32) Bool)
(declare-fun not_32 (Bool_32 Bool_32) Bool)
(assert (and_32 false_32 false_32 false_32))
(assert (and_32 false_32 true_32 false_32))
(assert (and_32 false_32 false_32 true_32))
(assert (and_32 true_32 true_32 true_32))
(assert (or_32 false_32 false_32 false_32))
(assert (or_32 true_32 true_32 false_32))
(assert (or_32 true_32 false_32 true_32))
(assert (or_32 true_32 true_32 true_32))
(assert (hence_32 true_32 false_32 false_32))
(assert (hence_32 false_32 true_32 false_32))
(assert (hence_32 true_32 false_32 true_32))
(assert (hence_32 true_32 true_32 true_32))
(assert (not_32 true_32 false_32))
(assert (not_32 false_32 true_32))
(declare-fun diseqInt (Int Int) Bool)
(declare-fun projS_59 (Int Int) Bool)
(declare-fun isZ_61 (Int) Bool)
(declare-fun isS_61 (Int) Bool)
(assert (forall ((x_1751 Int))
	(projS_59 x_1751 (S_61 x_1751))))
(assert (isZ_61 Z_174))
(assert (forall ((x_1753 Int))
	(isS_61 (S_61 x_1753))))
(assert (forall ((x_1754 Int))
	(diseqInt Z_174 (S_61 x_1754))))
(assert (forall ((x_1755 Int))
	(diseqInt (S_61 x_1755) Z_174)))
(assert (forall ((x_1756 Int) (x_1757 Int))
	(=> (diseqInt x_1756 x_1757) (diseqInt (S_61 x_1756) (S_61 x_1757)))))
(declare-datatypes ((list_30 0)) (((nil_30) (cons_30 (head_60 Int) (tail_60 list_30)))))
(declare-fun diseqlist_30 (list_30 list_30) Bool)
(declare-fun head_61 (Int list_30) Bool)
(declare-fun tail_61 (list_30 list_30) Bool)
(declare-fun isnil_30 (list_30) Bool)
(declare-fun iscons_30 (list_30) Bool)
(assert (forall ((x_1759 Int) (x_1760 list_30))
	(head_61 x_1759 (cons_30 x_1759 x_1760))))
(assert (forall ((x_1759 Int) (x_1760 list_30))
	(tail_61 x_1760 (cons_30 x_1759 x_1760))))
(assert (isnil_30 nil_30))
(assert (forall ((x_1762 Int) (x_1763 list_30))
	(iscons_30 (cons_30 x_1762 x_1763))))
(assert (forall ((x_1764 Int) (x_1765 list_30))
	(diseqlist_30 nil_30 (cons_30 x_1764 x_1765))))
(assert (forall ((x_1766 Int) (x_1767 list_30))
	(diseqlist_30 (cons_30 x_1766 x_1767) nil_30)))
(assert (forall ((x_1768 Int) (x_1769 list_30) (x_1770 Int) (x_1771 list_30))
	(=> (diseqInt x_1768 x_1770) (diseqlist_30 (cons_30 x_1768 x_1769) (cons_30 x_1770 x_1771)))))
(assert (forall ((x_1768 Int) (x_1769 list_30) (x_1770 Int) (x_1771 list_30))
	(=> (diseqlist_30 x_1769 x_1771) (diseqlist_30 (cons_30 x_1768 x_1769) (cons_30 x_1770 x_1771)))))
(declare-fun x_1723 (Bool_32 Int Int) Bool)
(assert (forall ((x_1730 Bool_32) (y_138 Int) (x_1725 Int))
	(=> (x_1723 x_1730 x_1725 y_138) (x_1723 x_1730 (S_61 x_1725) (S_61 y_138)))))
(assert (forall ((x_1725 Int))
	(x_1723 false_32 (S_61 x_1725) Z_174)))
(assert (forall ((z_175 Int))
	(x_1723 false_32 Z_174 (S_61 z_175))))
(assert (x_1723 true_32 Z_174 Z_174))
(declare-fun elem_1 (Bool_32 Int list_30) Bool)
(assert (forall ((z_176 Int) (xs_46 list_30) (x_1726 Int))
	(=> (x_1723 true_32 x_1726 z_176) (elem_1 true_32 x_1726 (cons_30 z_176 xs_46)))))
(assert (forall ((x_1738 Bool_32) (z_176 Int) (xs_46 list_30) (x_1726 Int))
	(=> (and (elem_1 x_1738 x_1726 xs_46) (x_1723 false_32 x_1726 z_176)) (elem_1 x_1738 x_1726 (cons_30 z_176 xs_46)))))
(assert (forall ((x_1726 Int))
	(elem_1 false_32 x_1726 nil_30)))
(declare-fun x_1727 (list_30 list_30 list_30) Bool)
(assert (forall ((x_1742 list_30) (z_177 Int) (xs_47 list_30) (y_140 list_30))
	(=> (x_1727 x_1742 xs_47 y_140) (x_1727 (cons_30 z_177 x_1742) (cons_30 z_177 xs_47) y_140))))
(assert (forall ((x_1743 list_30))
	(x_1727 x_1743 nil_30 x_1743)))
(assert (forall ((x_1744 list_30) (x_1729 Int) (xs_48 list_30) (ys_16 list_30))
	(=> (and true (elem_1 true_32 x_1729 xs_48) (x_1727 x_1744 xs_48 ys_16) (elem_1 false_32 x_1729 x_1744)) false)))
(check-sat)
